1 1 2 0
1 3 -4 0
1 -3 5 0
1 6 -5 0
1 -7 -8 0
1 -7 9 0
1 -7 10 0
1 -11 12 0
1 11 -7 0
1 -11 3 0
1 -11 6 0
1 -5 -13 0
1 -5 -14 0
1 -5 -15 0
1 5 6 0
1 16 -13 0
1 16 -7 0
1 16 -1 0
1 16 10 0
1 10 13 0
1 15 17 0
1 18 -9 0
1 12 -19 0
1 12 -20 0
1 12 -21 0
1 -20 14 0
1 -9 22 0
1 -9 23 0
1 -8 -13 0
1 8 12 0
1 8 -24 0
1 23 25 0
1 26 -9 0
1 -26 19 0
1 26 -25 0
1 -26 21 0
1 27 -28 0
1 29 28 0
1 -25 -30 0
1 28 26 0
1 28 31 0
1 19 -32 0
1 19 31 0
1 -19 -24 0
1 19 -33 0
1 -2 34 0
1 2 4 0
1 -4 35 0
1 -36 -37 0
1 38 39 0
1 38 40 0
1 -38 36 0
1 -35 -41 0
1 -42 43 0
1 -42 4 0
1 34 -4 0
1 44 38 0
1 45 39 0
1 -45 16 0
1 45 -15 0
1 41 40 0
1 -41 -14 0
1 -41 46 0
1 47 -39 0
1 -37 13 0
1 37 -48 0
1 37 -49 0
1 -37 -50 0
1 -51 48 0
1 -51 -49 0
1 51 -41 0
1 39 -43 0
1 39 48 0
1 -39 -36 0
1 40 -52 0
1 40 48 0
1 -40 -53 0
1 40 41 0
1 40 -36 0
1 13 37 0
1 -13 -54 0
1 -49 -55 0
1 49 56 0
1 -57 46 0
1 -55 58 0
1 55 -31 0
1 55 -24 0
1 -55 49 0
1 -59 13 0
1 -59 -55 0
1 59 -31 0
1 -59 -50 0
1 59 41 0
1 59 -33 0
1 -54 13 0
1 54 -47 0
1 54 -46 0
1 -46 -60 0
1 46 57 0
1 -46 -13 0
1 -46 -48 0
1 -46 49 0
1 -46 41 0
1 24 61 0
1 24 -55 0
1 -24 56 0
1 31 19 0
1 31 -55 0
1 31 62 0
1 31 33 0
1 33 63 0
1 -33 -64 0
1 33 -59 0
1 65 24 0
1 65 -66 0
1 -65 -67 0
1 65 -68 0
1 61 69 0
1 -61 -24 0
1 61 -5 0
1 -61 67 0
1 61 -33 0
1 -56 -70 0
1 56 -71 0
1 -56 -66 0
1 56 72 0
1 56 -64 0
1 64 31 0
1 -32 61 0
1 -32 -62 0
1 -30 32 0
1 30 73 0
1 74 75 0
1 74 70 0
1 -67 74 0
1 -67 62 0
1 67 -76 0
1 67 -72 0
1 -77 20 0
1 -77 78 0
1 -77 -79 0
1 22 -80 0
1 -22 -32 0
1 22 81 0
1 22 67 0
1 22 33 0
1 62 82 0
1 -62 -67 0
1 -63 82 0
1 63 -31 0
1 83 22 0
1 -81 83 0
1 81 -77 0
1 81 -76 0
1 76 -84 0
1 -76 81 0
1 -84 -83 0
1 84 -81 0
1 85 86 0
1 85 87 0
1 -75 88 0
1 75 -82 0
1 75 -80 0
1 -89 -2 0
1 -90 -89 0
1 -91 92 0
1 93 -38 0
1 -93 94 0
1 93 95 0
1 -93 -91 0
1 -96 -97 0
1 -96 93 0
1 -96 -98 0
1 96 -99 0
1 97 99 0
1 97 -91 0
1 94 -100 0
1 -94 90 0
1 100 101 0
1 99 -92 0
1 -102 -52 0
1 102 103 0
1 -102 104 0
1 -102 92 0
1 105 106 0
1 105 104 0
1 105 96 0
1 105 101 0
1 105 -92 0
1 -106 -103 0
1 106 -105 0
1 92 107 0
1 -92 106 0
1 92 104 0
1 -92 -108 0
1 -104 93 0
1 -95 107 0
1 -95 106 0
1 95 102 0
1 -95 103 0
1 -95 109 0
1 -95 -91 0
1 103 110 0
1 103 93 0
1 53 -111 0
1 53 112 0
1 -113 -57 0
1 113 -114 0
1 115 60 0
1 -116 -60 0
1 -116 -115 0
1 -117 118 0
1 -117 -108 0
1 117 -53 0
1 119 -107 0
1 119 -120 0
1 -119 121 0
1 48 -60 0
1 -48 114 0
1 48 -122 0
1 -48 40 0
1 -60 46 0
1 123 -124 0
1 123 116 0
1 -123 114 0
1 -123 -122 0
1 -123 -125 0
1 126 -123 0
1 126 122 0
1 -126 127 0
1 -126 33 0
1 -126 121 0
1 124 -128 0
1 -122 -113 0
1 -122 73 0
1 -111 128 0
1 111 126 0
1 114 60 0
1 114 -111 0
1 114 -129 0
1 58 -130 0
1 58 54 0
1 -58 64 0
1 73 -124 0
1 73 130 0
1 70 130 0
1 70 -74 0
1 -70 -127 0
1 70 -131 0
1 -72 -130 0
1 -72 -132 0
1 72 64 0
1 133 -37 0
1 -133 -69 0
1 -125 70 0
1 -125 -72 0
1 125 -126 0
1 -130 129 0
1 130 128 0
1 -130 -72 0
1 -69 -63 0
1 -69 -132 0
1 69 -65 0
1 69 131 0
1 -69 64 0
1 -66 -69 0
1 -66 132 0
1 66 -56 0
1 -66 128 0
1 -66 -134 0
1 66 131 0
1 135 133 0
1 -135 -125 0
1 -136 63 0
1 136 -133 0
1 -136 -78 0
1 -136 137 0
1 136 -138 0
1 -139 -55 0
1 139 -87 0
1 -139 -140 0
1 -131 141 0
1 -131 -59 0
1 131 -142 0
1 -132 143 0
1 134 -135 0
1 -134 -72 0
1 -82 -144 0
1 -82 22 0
1 -82 71 0
1 -82 85 0
1 140 63 0
1 -145 146 0
1 145 147 0
1 -145 -75 0
1 -145 139 0
1 145 71 0
1 145 -148 0
1 145 149 0
1 -145 85 0
1 87 144 0
1 87 -147 0
1 -87 -85 0
1 -148 -65 0
1 148 150 0
1 144 82 0
1 -144 135 0
1 144 151 0
1 71 -56 0
1 -71 87 0
1 138 135 0
1 88 -141 0
1 88 147 0
1 88 -149 0
1 88 -76 0
1 -86 -88 0
1 -86 147 0
1 -86 -148 0
1 86 76 0
1 150 -144 0
1 -150 -147 0
1 -150 -152 0
1 -150 79 0
1 152 153 0
1 -152 -154 0
1 -79 -145 0
1 -79 -147 0
1 79 155 0
1 -79 -156 0
1 -79 -86 0
1 147 88 0
1 147 -157 0
1 147 -79 0
1 147 -158 0
1 149 -152 0
1 -149 62 0
1 149 159 0
1 -146 155 0
1 -146 158 0
1 -160 -156 0
1 -160 -154 0
1 161 -147 0
1 -161 154 0
1 -157 154 0
1 -154 156 0
1 154 162 0
1 153 158 0
1 -153 161 0
1 163 -157 0
1 163 156 0
1 -163 158 0
1 163 -160 0
1 163 150 0
1 -164 -165 0
1 -166 167 0
1 168 167 0
1 168 -91 0
1 -169 170 0
1 -169 167 0
1 169 -168 0
1 165 -168 0
1 -171 -172 0
1 -173 174 0
1 173 166 0
1 -173 175 0
1 -173 -164 0
1 -167 176 0
1 167 169 0
1 -177 -99 0
1 -101 -171 0
1 101 -170 0
1 172 -106 0
1 -172 178 0
1 172 179 0
1 -172 -180 0
1 -178 -110 0
1 178 -181 0
1 180 -169 0
1 180 -177 0
1 -182 -183 0
1 182 184 0
1 -182 177 0
1 170 174 0
1 -170 -172 0
1 -170 185 0
1 186 187 0
1 -186 188 0
1 -186 100 0
1 186 -178 0
1 186 179 0
1 186 189 0
1 190 -174 0
1 -190 -103 0
1 -112 110 0
1 -112 178 0
1 -112 -179 0
1 112 -184 0
1 -110 191 0
1 110 -192 0
1 110 -103 0
1 110 -112 0
1 110 -95 0
1 193 110 0
1 -193 -190 0
1 193 194 0
1 188 193 0
1 188 -112 0
1 -188 186 0
1 179 187 0
1 179 195 0
1 -179 -112 0
1 -187 -196 0
1 187 194 0
1 187 101 0
1 108 -188 0
1 -107 197 0
1 107 -192 0
1 -107 103 0
1 107 92 0
1 198 123 0
1 -198 -195 0
1 198 193 0
1 198 -199 0
1 198 98 0
1 -198 -200 0
1 121 -188 0
1 -121 199 0
1 121 -126 0
1 -98 112 0
1 -98 201 0
1 192 -202 0
1 192 -118 0
1 -192 -203 0
1 -192 -121 0
1 -199 204 0
1 118 114 0
1 -118 117 0
1 -205 117 0
1 205 -114 0
1 -202 114 0
1 -202 109 0
1 -202 -98 0
1 -203 206 0
1 -203 -192 0
1 203 -120 0
1 -203 -114 0
1 203 -98 0
1 -203 109 0
1 -203 -207 0
1 -200 -129 0
1 200 -198 0
1 -200 137 0
1 -200 128 0
1 -208 198 0
1 -208 -209 0
1 -208 -128 0
1 -109 -210 0
1 -109 202 0
1 109 -211 0
1 109 -205 0
1 212 210 0
1 -212 205 0
1 -129 -69 0
1 -129 -114 0
1 128 111 0
1 -128 -130 0
1 128 208 0
1 -128 -122 0
1 128 201 0
1 213 -130 0
1 213 -135 0
1 -213 -214 0
1 -213 -215 0
1 137 216 0
1 -137 -214 0
1 -137 -127 0
1 137 -200 0
1 206 129 0
1 -206 202 0
1 -206 -217 0
1 214 -206 0
1 214 -218 0
1 -214 -213 0
1 -214 217 0
1 219 -213 0
1 219 137 0
1 219 -128 0
1 -120 129 0
1 -120 -202 0
1 -120 119 0
1 -120 -203 0
1 120 219 0
1 220 -82 0
1 220 221 0
1 222 220 0
1 -222 223 0
1 222 -209 0
1 -222 -127 0
1 222 134 0
1 -224 225 0
1 -224 -132 0
1 143 -223 0
1 143 -226 0
1 -143 -215 0
1 223 -124 0
1 -223 227 0
1 -223 137 0
1 215 224 0
1 215 -143 0
1 -215 -222 0
1 216 224 0
1 -216 -111 0
1 216 -228 0
1 216 213 0
1 216 222 0
1 -216 137 0
1 -226 -229 0
1 226 220 0
1 -226 -230 0
1 226 114 0
1 226 222 0
1 141 227 0
1 141 -231 0
1 227 138 0
1 -232 229 0
1 232 -223 0
1 232 -233 0
1 -232 215 0
1 -232 -234 0
1 235 -232 0
1 235 -236 0
1 -235 71 0
1 -235 215 0
1 -225 237 0
1 -225 232 0
1 231 -141 0
1 231 -235 0
1 231 -227 0
1 233 -224 0
1 -233 238 0
1 -233 143 0
1 -239 -238 0
1 -239 -230 0
1 239 -227 0
1 239 127 0
1 239 232 0
1 -240 230 0
1 159 -146 0
1 159 237 0
1 159 -236 0
1 159 -241 0
1 -237 234 0
1 -242 -240 0
1 142 240 0
1 -142 -159 0
1 -142 -232 0
1 236 -243 0
1 236 238 0
1 234 243 0
1 -234 -238 0
1 158 -147 0
1 -158 155 0
1 -158 -242 0
1 -158 241 0
1 -158 -153 0
1 -155 -163 0
1 -155 241 0
1 244 -245 0
1 -244 163 0
1 244 241 0
1 244 -153 0
1 246 247 0
1 246 -248 0
1 246 -245 0
1 246 242 0
1 -246 249 0
1 246 -250 0
1 249 251 0
1 249 155 0
1 249 162 0
1 -248 252 0
1 248 -253 0
1 248 251 0
1 248 -155 0
1 248 -237 0
1 247 -237 0
1 -247 -241 0
1 247 -254 0
1 162 248 0
1 -162 250 0
1 162 255 0
1 -251 162 0
1 251 250 0
1 -251 -255 0
1 256 -248 0
1 253 -257 0
1 253 -258 0
1 -255 -244 0
1 -245 253 0
1 -245 -259 0
1 -245 -162 0
1 -250 252 0
1 250 260 0
1 250 -261 0
1 250 -244 0
1 -250 -262 0
1 -260 -252 0
1 -260 251 0
1 -260 -262 0
1 263 -252 0
1 -263 -264 0
1 263 255 0
1 265 264 0
1 265 259 0
1 -265 -266 0
1 267 -257 0
1 267 -259 0
1 -267 -268 0
1 -257 269 0
1 257 268 0
1 257 265 0
1 258 -269 0
1 -258 -270 0
1 258 -261 0
1 258 -271 0
1 -264 259 0
1 -264 268 0
1 272 -273 0
1 272 274 0
1 273 275 0
1 -276 -277 0
1 276 -278 0
1 -276 279 0
1 -276 -274 0
1 -277 -280 0
1 -277 281 0
1 277 279 0
1 275 278 0
1 275 276 0
1 278 176 0
1 274 272 0
1 274 280 0
1 175 -275 0
1 -175 278 0
1 -175 167 0
1 -282 283 0
1 -284 -285 0
1 284 176 0
1 284 -167 0
1 284 286 0
1 -176 172 0
1 176 167 0
1 -287 -288 0
1 287 -176 0
1 287 277 0
1 279 277 0
1 289 284 0
1 289 175 0
1 281 289 0
1 189 -290 0
1 -189 279 0
1 189 171 0
1 -189 170 0
1 -174 290 0
1 174 279 0
1 174 -291 0
1 -174 -171 0
1 184 287 0
1 184 -292 0
1 -184 279 0
1 -191 285 0
1 -191 -184 0
1 285 176 0
1 -285 189 0
1 285 284 0
1 286 293 0
1 286 285 0
1 -286 294 0
1 -286 -189 0
1 290 191 0
1 290 295 0
1 291 -191 0
1 -291 176 0
1 -291 294 0
1 -291 296 0
1 185 297 0
1 -185 170 0
1 -293 -292 0
1 293 180 0
1 -298 -299 0
1 298 -300 0
1 297 -195 0
1 297 185 0
1 -297 -184 0
1 -297 301 0
1 -302 -191 0
1 -302 -184 0
1 -302 171 0
1 302 -303 0
1 300 -195 0
1 300 296 0
1 -194 297 0
1 194 118 0
1 -194 -183 0
1 -194 294 0
1 -194 -181 0
1 204 187 0
1 -204 197 0
1 -204 194 0
1 -204 -183 0
1 204 205 0
1 -304 -305 0
1 304 306 0
1 -207 -307 0
1 -207 297 0
1 -207 181 0
1 207 305 0
1 -207 -306 0
1 207 302 0
1 207 308 0
1 -207 309 0
1 -181 -299 0
1 181 -310 0
1 181 -311 0
1 -181 304 0
1 -181 -312 0
1 181 -313 0
1 -299 -312 0
1 183 310 0
1 -183 309 0
1 183 -314 0
1 309 298 0
1 -309 -315 0
1 311 -307 0
1 311 -192 0
1 -311 -181 0
1 -311 305 0
1 311 -201 0
1 -311 -109 0
1 -201 -109 0
1 210 -212 0
1 210 316 0
1 313 -317 0
1 313 316 0
1 -306 221 0
1 -306 -193 0
1 -306 -209 0
1 306 -318 0
1 -307 -210 0
1 -307 306 0
1 307 207 0
1 305 319 0
1 305 -201 0
1 305 207 0
1 196 -319 0
1 196 210 0
1 -196 -304 0
1 -196 320 0
1 -221 209 0
1 -221 -306 0
1 221 -321 0
1 -209 -212 0
1 -209 -120 0
1 209 306 0
1 -209 312 0
1 209 -200 0
1 322 -317 0
1 322 120 0
1 -323 -324 0
1 -323 316 0
1 -316 229 0
1 316 325 0
1 -316 -98 0
1 -317 221 0
1 317 -210 0
1 317 -326 0
1 317 -323 0
1 -317 -316 0
1 321 -322 0
1 -321 -210 0
1 321 -326 0
1 -321 -209 0
1 324 221 0
1 -324 321 0
1 324 -327 0
1 324 209 0
1 -218 141 0
1 -218 -211 0
1 -218 219 0
1 217 328 0
1 -217 -227 0
1 229 -329 0
1 229 211 0
1 325 330 0
1 325 316 0
1 -325 331 0
1 331 -332 0
1 -331 333 0
1 -331 328 0
1 -331 217 0
1 331 200 0
1 -211 322 0
1 211 334 0
1 -211 -325 0
1 -211 -335 0
1 330 218 0
1 330 -332 0
1 -330 -325 0
1 -330 -217 0
1 230 233 0
1 -230 326 0
1 230 -215 0
1 336 337 0
1 333 -329 0
1 -333 338 0
1 329 333 0
1 329 325 0
1 -329 -339 0
1 -340 333 0
1 337 229 0
1 -337 -340 0
1 337 -341 0
1 -337 120 0
1 -337 342 0
1 339 -228 0
1 339 158 0
1 -238 228 0
1 238 -236 0
1 -238 -343 0
1 238 239 0
1 -238 339 0
1 344 329 0
1 -344 -343 0
1 344 345 0
1 -344 234 0
1 243 -228 0
1 -243 -236 0
1 -243 -338 0
1 243 344 0
1 243 -234 0
1 346 243 0
1 -346 -238 0
1 -346 -347 0
1 346 -254 0
1 -345 -346 0
1 -345 -238 0
1 345 -347 0
1 345 -336 0
1 -343 243 0
1 254 162 0
1 254 348 0
1 254 142 0
1 -349 350 0
1 349 -242 0
1 349 -254 0
1 349 345 0
1 351 -352 0
1 -351 -353 0
1 351 -345 0
1 -351 354 0
1 351 -355 0
1 -352 -346 0
1 -352 350 0
1 352 355 0
1 350 225 0
1 350 356 0
1 350 -254 0
1 348 -252 0
1 -348 351 0
1 348 -266 0
1 -357 -358 0
1 357 -347 0
1 357 -359 0
1 357 -360 0
1 -359 344 0
1 -361 -247 0
1 361 241 0
1 -361 348 0
1 -252 -249 0
1 -252 -250 0
1 -362 363 0
1 -362 -364 0
1 266 260 0
1 -266 -353 0
1 -266 -362 0
1 -266 364 0
1 -365 362 0
1 -365 351 0
1 -365 -266 0
1 355 -365 0
1 -355 366 0
1 -353 352 0
1 353 -367 0
1 354 367 0
1 354 -362 0
1 -261 -255 0
1 262 -368 0
1 -262 -363 0
1 262 264 0
1 262 360 0
1 -270 -365 0
1 -270 364 0
1 270 369 0
1 370 363 0
1 -370 371 0
1 370 -369 0
1 370 -372 0
1 -364 -270 0
1 363 373 0
1 363 269 0
1 363 374 0
1 -363 375 0
1 363 -370 0
1 -363 266 0
1 -371 -368 0
1 371 374 0
1 371 -370 0
1 -371 266 0
1 368 -373 0
1 368 -366 0
1 368 -262 0
1 269 -369 0
1 269 -267 0
1 271 258 0
1 -376 -363 0
1 375 364 0
1 -377 375 0
1 369 378 0
1 -379 -378 0
1 380 -381 0
1 -381 374 0
1 382 -383 0
1 384 -382 0
1 -384 385 0
1 -383 382 0
1 -385 -375 0
1 -386 387 0
1 387 380 0
1 387 -264 0
1 387 384 0
1 -295 289 0
1 288 388 0
1 288 -291 0
1 -288 -389 0
1 390 -388 0
1 -390 391 0
1 -390 291 0
1 392 393 0
1 392 394 0
1 392 290 0
1 -393 -395 0
1 -393 308 0
1 396 -393 0
1 -396 -308 0
1 389 -397 0
1 389 -295 0
1 -388 390 0
1 -294 -194 0
1 294 -286 0
1 -294 -300 0
1 -294 296 0
1 -296 394 0
1 -296 398 0
1 -296 -292 0
1 -296 286 0
1 399 400 0
1 -399 300 0
1 308 -393 0
1 -398 401 0
1 -391 -392 0
1 391 401 0
1 391 -301 0
1 391 308 0
1 -394 -294 0
1 -394 -296 0
1 -402 -392 0
1 -402 399 0
1 402 390 0
1 -402 -296 0
1 -403 404 0
1 403 -311 0
1 403 301 0
1 -301 -398 0
1 301 -292 0
1 405 406 0
1 405 -407 0
1 405 -309 0
1 -315 -400 0
1 315 408 0
1 -315 409 0
1 -315 303 0
1 406 -410 0
1 -406 319 0
1 -406 -310 0
1 406 400 0
1 406 315 0
1 -406 -301 0
1 -400 -315 0
1 409 -404 0
1 -409 -411 0
1 409 -399 0
1 409 412 0
1 -409 -291 0
1 409 315 0
1 310 413 0
1 310 408 0
1 -310 -183 0
1 310 305 0
1 310 400 0
1 312 -408 0
1 312 -209 0
1 -312 -401 0
1 -312 303 0
1 319 -196 0
1 -319 -407 0
1 319 -305 0
1 320 -196 0
1 -320 -305 0
1 320 -412 0
1 408 -414 0
1 408 319 0
1 -408 -405 0
1 -408 415 0
1 -303 416 0
1 303 320 0
1 -303 -302 0
1 -407 -320 0
1 407 417 0
1 417 -405 0
1 -416 314 0
1 -327 418 0
1 -327 314 0
1 327 217 0
1 -327 -419 0
1 414 -418 0
1 414 420 0
1 -414 324 0
1 421 414 0
1 421 314 0
1 -421 -422 0
1 -419 -414 0
1 419 -418 0
1 419 -421 0
1 419 -335 0
1 418 -416 0
1 418 -334 0
1 -314 423 0
1 314 -415 0
1 -314 -424 0
1 314 425 0
1 -314 -422 0
1 422 -416 0
1 -422 -309 0
1 426 317 0
1 426 427 0
1 426 -321 0
1 426 211 0
1 -326 -418 0
1 -326 428 0
1 326 -230 0
1 -335 429 0
1 335 -334 0
1 335 -427 0
1 -335 -211 0
1 -334 430 0
1 -334 -211 0
1 -318 332 0
1 318 326 0
1 -431 -414 0
1 -431 421 0
1 -431 432 0
1 427 433 0
1 -427 434 0
1 427 -421 0
1 427 -305 0
1 427 -435 0
1 -427 -436 0
1 427 -335 0
1 428 423 0
1 437 -337 0
1 437 438 0
1 -332 -423 0
1 332 330 0
1 -332 439 0
1 332 318 0
1 -332 440 0
1 432 -436 0
1 441 340 0
1 -441 -243 0
1 441 434 0
1 441 -442 0
1 438 443 0
1 -438 -334 0
1 439 341 0
1 439 444 0
1 -439 342 0
1 439 432 0
1 439 438 0
1 430 -443 0
1 -430 -433 0
1 430 -324 0
1 430 445 0
1 -342 340 0
1 -342 -446 0
1 342 -442 0
1 -342 337 0
1 342 343 0
1 342 -447 0
1 -341 -340 0
1 341 349 0
1 -341 -439 0
1 -341 446 0
1 448 439 0
1 -449 -450 0
1 449 -439 0
1 -447 451 0
1 -447 441 0
1 447 -442 0
1 -447 -452 0
1 -447 453 0
1 -442 -454 0
1 442 328 0
1 -442 342 0
1 442 -455 0
1 -456 -441 0
1 -456 -457 0
1 456 -432 0
1 -446 -330 0
1 446 458 0
1 -446 457 0
1 -446 342 0
1 -347 444 0
1 347 447 0
1 454 347 0
1 -452 -459 0
1 -452 -362 0
1 455 460 0
1 455 459 0
1 -455 357 0
1 455 -461 0
1 -455 -359 0
1 -455 447 0
1 462 449 0
1 462 -452 0
1 462 463 0
1 -462 464 0
1 462 360 0
1 463 462 0
1 463 465 0
1 463 338 0
1 -463 -455 0
1 459 -466 0
1 -467 449 0
1 -467 468 0
1 467 -469 0
1 -467 -347 0
1 -467 -470 0
1 467 -455 0
1 -358 -261 0
1 358 -471 0
1 -360 462 0
1 360 357 0
1 -360 463 0
1 360 -359 0
1 360 -354 0
1 -367 -471 0
1 367 472 0
1 -367 372 0
1 -372 472 0
1 473 -367 0
1 -473 366 0
1 473 -360 0
1 461 474 0
1 461 -475 0
1 -461 452 0
1 -461 476 0
1 461 -345 0
1 -461 -366 0
1 -477 -465 0
1 471 -478 0
1 471 -455 0
1 475 473 0
1 475 472 0
1 -366 475 0
1 366 355 0
1 474 -368 0
1 -474 -371 0
1 474 479 0
1 474 480 0
1 476 371 0
1 -476 481 0
1 479 475 0
1 479 367 0
1 -482 -475 0
1 482 -483 0
1 -482 -366 0
1 -482 372 0
1 472 -483 0
1 -374 -379 0
1 374 484 0
1 -374 371 0
1 374 -485 0
1 -374 486 0
1 -487 -379 0
1 487 -356 0
1 -487 -479 0
1 -378 484 0
1 -378 -384 0
1 -488 365 0
1 486 -474 0
1 -486 -476 0
1 413 -395 0
1 -413 -394 0
1 -413 489 0
1 413 409 0
1 -401 394 0
1 -401 -398 0
1 -401 489 0
1 401 -391 0
1 -490 -491 0
1 490 492 0
1 490 401 0
1 397 493 0
1 -489 397 0
1 489 413 0
1 489 -494 0
1 410 495 0
1 -492 -404 0
1 -492 490 0
1 492 495 0
1 420 -496 0
1 -420 497 0
1 491 498 0
1 491 -490 0
1 491 499 0
1 -498 420 0
1 -498 -415 0
1 498 -492 0
1 -498 495 0
1 -495 -498 0
1 -495 415 0
1 495 -492 0
1 495 -391 0
1 495 412 0
1 -496 -394 0
1 -496 -500 0
1 496 -491 0
1 496 -412 0
1 499 420 0
1 499 410 0
1 -499 -412 0
1 501 -502 0
1 501 -503 0
1 -501 -415 0
1 501 -495 0
1 415 -501 0
1 -415 -503 0
1 -415 -411 0
1 415 417 0
1 429 498 0
1 -429 503 0
1 429 -314 0
1 -429 -504 0
1 429 495 0
1 -429 411 0
1 -505 -334 0
1 505 506 0
1 503 434 0
1 503 -415 0
1 -497 503 0
1 -497 436 0
1 -502 501 0
1 502 -420 0
1 502 491 0
1 -502 -507 0
1 411 -420 0
1 411 -508 0
1 -411 509 0
1 411 -415 0
1 -411 -510 0
1 -411 511 0
1 -425 -428 0
1 -425 -504 0
1 425 427 0
1 425 512 0
1 -423 -503 0
1 423 -509 0
1 -423 -314 0
1 -423 506 0
1 423 -512 0
1 436 434 0
1 436 -512 0
1 -434 -513 0
1 434 504 0
1 -434 -424 0
1 434 436 0
1 -514 434 0
1 514 -423 0
1 -514 -505 0
1 -514 -436 0
1 -514 429 0
1 512 423 0
1 512 -515 0
1 504 516 0
1 -504 -423 0
1 504 -505 0
1 -504 436 0
1 504 -425 0
1 -506 -434 0
1 -506 -517 0
1 435 -518 0
1 435 513 0
1 435 -428 0
1 -435 -433 0
1 -435 -430 0
1 435 -342 0
1 435 512 0
1 -433 -518 0
1 433 428 0
1 433 519 0
1 445 -518 0
1 -450 520 0
1 450 -514 0
1 450 -424 0
1 -450 -519 0
1 450 512 0
1 -519 -457 0
1 519 -419 0
1 -424 -521 0
1 424 434 0
1 -518 -445 0
1 518 435 0
1 -444 522 0
1 -444 -439 0
1 -444 -523 0
1 -443 454 0
1 443 -456 0
1 457 513 0
1 457 520 0
1 -457 522 0
1 457 524 0
1 -457 452 0
1 460 -524 0
1 460 457 0
1 -460 -525 0
1 -460 -526 0
1 525 -527 0
1 525 528 0
1 -525 -445 0
1 529 -527 0
1 -529 457 0
1 520 428 0
1 528 442 0
1 453 459 0
1 453 442 0
1 453 467 0
1 453 -360 0
1 453 456 0
1 -453 -530 0
1 -468 459 0
1 -468 -367 0
1 468 -458 0
1 -470 531 0
1 -470 532 0
1 470 -525 0
1 -470 372 0
1 -526 460 0
1 -526 -438 0
1 -526 -481 0
1 -526 453 0
1 524 468 0
1 -524 470 0
1 -533 460 0
1 -533 534 0
1 -533 -440 0
1 -533 535 0
1 533 470 0
1 531 528 0
1 -465 -451 0
1 464 524 0
1 -464 536 0
1 537 532 0
1 -537 469 0
1 481 -524 0
1 481 -458 0
1 -451 -485 0
1 532 -481 0
1 -532 464 0
1 536 -465 0
1 536 -458 0
1 536 -538 0
1 458 537 0
1 458 -465 0
1 -478 539 0
1 478 -461 0
1 -485 -473 0
1 -485 482 0
1 485 -469 0
1 -485 539 0
1 540 -451 0
1 540 466 0
1 540 541 0
1 -540 -532 0
1 -539 542 0
1 539 -478 0
1 507 -543 0
1 507 509 0
1 -507 494 0
1 -507 495 0
1 507 411 0
1 507 425 0
1 -509 -493 0
1 -509 495 0
1 511 493 0
1 -511 -494 0
1 -508 493 0
1 -508 543 0
1 543 544 0
1 543 -509 0
1 543 510 0
1 545 510 0
1 493 509 0
1 -494 -493 0
1 494 508 0
1 -510 -503 0
1 -546 516 0
1 546 -547 0
1 -546 -548 0
1 -546 549 0
1 -546 550 0
1 547 -544 0
1 -547 -546 0
1 -547 511 0
1 -551 516 0
1 549 551 0
1 -549 508 0
1 549 -499 0
1 549 -552 0
1 -549 511 0
1 523 -518 0
1 523 -548 0
1 -523 504 0
1 523 -512 0
1 -521 553 0
1 -521 554 0
1 555 515 0
1 556 518 0
1 -556 554 0
1 -548 -557 0
1 548 -546 0
1 550 -521 0
1 550 558 0
1 550 -546 0
1 550 497 0
1 559 -502 0
1 -559 -560 0
1 559 561 0
1 554 521 0
1 -554 557 0
1 554 -560 0
1 554 -555 0
1 554 -562 0
1 558 563 0
1 530 518 0
1 530 558 0
1 530 424 0
1 530 529 0
1 530 -550 0
1 -564 -565 0
1 564 566 0
1 567 -562 0
1 -568 -555 0
1 515 -564 0
1 -515 -568 0
1 515 530 0
1 -563 569 0
1 563 -570 0
1 563 -564 0
1 -517 -569 0
1 -517 564 0
1 -517 -563 0
1 -517 555 0
1 -517 -530 0
1 527 531 0
1 -527 -557 0
1 527 -529 0
1 -535 -571 0
1 535 520 0
1 535 -531 0
1 -535 529 0
1 535 525 0
1 535 -533 0
1 -535 572 0
1 573 574 0
1 573 575 0
1 573 534 0
1 -534 573 0
1 534 -565 0
1 -534 566 0
1 534 533 0
1 566 519 0
1 -566 -534 0
1 -566 567 0
1 -574 -527 0
1 574 -567 0
1 -565 -576 0
1 571 -518 0
1 -571 569 0
1 -571 527 0
1 -577 -569 0
1 -577 538 0
1 -538 -485 0
1 -538 -578 0
1 538 -575 0
1 538 -533 0
1 541 -579 0
1 -541 -458 0
1 -580 483 0
1 580 581 0
1 -580 536 0
1 575 -577 0
1 -575 534 0
1 582 534 0
1 581 577 0
1 -579 573 0
1 560 -547 0
1 560 -549 0
1 -560 -553 0
1 -560 -554 0
1 -561 560 0
1 561 -583 0
1 561 -530 0
1 584 -585 0
1 -584 -559 0
1 -562 -554 0
1 -585 -570 0
1 -583 545 0
1 -586 -584 0
1 -586 -562 0
1 -587 -562 0
1 -557 -559 0
1 557 -563 0
1 572 -588 0
1 -572 -554 0
1 570 589 0
1 -590 563 0
1 -590 534 0
1 -591 -590 0
1 -591 -562 0
1 -589 557 0
1 589 -584 0
1 -588 -570 0
1 -588 -562 0
1 -552 -588 0
1 552 -584 0
1 552 549 0
1 552 590 0
1 -569 568 0
1 569 592 0
1 -578 -571 0
1 578 569 0
1 -578 592 0
1 578 -517 0
1 -576 -593 0
1 -576 -594 0
1 -595 571 0
1 -595 576 0
1 595 589 0
1 594 -576 0
1 -594 570 0
1 -594 -595 0
1 -596 -570 0
1 596 593 0
1 -596 -595 0
